opti defect conp nodsymmetry regi_before regi2a
Title
BaSnO3 with fixed r2-r1=12
end
cell
4.123773 4.123773 4.123773 90 90 90 
frac
Ba c 0.5 0.5 0.5 -7.203
Ba s 0.5 0.5 0.5 9.203
Sn c 0 0 0 2.42
Sn s 0 0 0 1.58
O c 0 0.5 0 0.389
O s 0 0.5 0 -2.389
O c 0 0 0.5 0.389
O s 0 0 0.5 -2.389
O c 0.5 0 0 0.389
O s 0.5 0 0 -2.389
size     20.516200   32.516200
centre 0.5 1 1
vacancy 0.5 1 1
library std.lib
xtol 8
gtol 6
ftol 10
accuracy 18
move_2a_to_1
output xyz 1.xyz
dump every 1.res
